predicate subcircuitChoco(array [int] of var int: x);
array [1..30] of int: X_INTRODUCED_31_ = [0,897,18,694,884,901,521,570,338,544,464,166,60,149,312,685,618,795,43,803,603,61,233,961,271,952,680,36,929,143];
array [1..30] of int: X_INTRODUCED_35_ = [18,664,0,980,389,86,419,250,861,665,859,593,146,139,108,903,209,447,531,406,871,211,353,72,882,79,133,814,336,372];
array [1..30] of int: X_INTRODUCED_37_ = [694,137,980,0,431,618,77,501,178,547,568,622,440,620,720,517,805,893,210,212,315,250,168,593,548,629,184,494,352,35];
array [1..30] of int: X_INTRODUCED_39_ = [884,658,389,431,0,853,611,512,405,19,320,277,962,88,448,650,704,564,314,527,163,104,678,530,258,115,668,841,449,581];
array [1..30] of int: X_INTRODUCED_41_ = [901,711,86,618,853,0,877,263,201,981,948,214,499,374,113,401,979,157,798,552,841,675,708,492,952,485,481,523,426,696];
array [1..30] of int: X_INTRODUCED_43_ = [521,825,419,77,611,877,0,497,583,639,879,384,711,437,665,314,676,729,109,981,409,200,924,935,68,195,404,54,659,825];
array [1..30] of int: X_INTRODUCED_45_ = [570,541,250,501,512,263,497,0,481,615,701,137,787,869,732,229,934,337,16,480,443,221,936,577,580,643,494,852,637,630];
array [1..30] of int: X_INTRODUCED_47_ = [338,806,861,178,405,201,583,481,0,351,365,424,683,129,314,770,455,845,465,266,221,96,824,274,749,698,731,715,362,366];
array [1..30] of int: X_INTRODUCED_49_ = [544,189,665,547,19,981,639,615,351,0,530,385,932,897,436,536,374,9,364,492,187,884,209,983,410,233,28,590,678,0];
array [1..30] of int: X_INTRODUCED_51_ = [464,108,859,568,320,948,879,701,365,530,0,23,60,17,335,639,565,237,14,80,821,925,638,894,433,624,546,745,426,188];
array [1..30] of int: X_INTRODUCED_53_ = [166,913,593,622,277,214,384,137,424,385,23,0,596,212,68,723,486,749,979,56,434,454,835,704,278,873,10,372,933,997];
array [1..30] of int: X_INTRODUCED_55_ = [60,726,146,440,962,499,711,787,683,932,60,596,0,678,565,303,552,657,993,307,118,655,207,183,515,429,429,91,327,545];
array [1..30] of int: X_INTRODUCED_57_ = [149,376,139,620,88,374,437,869,129,897,17,212,678,0,512,601,900,829,621,16,226,480,718,111,688,100,714,570,968,324];
array [1..30] of int: X_INTRODUCED_59_ = [312,490,108,720,448,113,665,732,314,436,335,68,565,512,0,491,242,922,424,883,532,588,191,472,803,362,862,409,301,337];
array [1..30] of int: X_INTRODUCED_61_ = [685,374,903,517,650,401,314,229,770,536,639,723,303,601,491,0,340,277,72,833,18,607,523,831,758,286,509,453,394,233];
array [1..30] of int: X_INTRODUCED_63_ = [618,71,209,805,704,979,676,934,455,374,565,486,552,900,242,340,0,523,96,451,897,594,136,897,941,912,517,24,901,246];
array [1..30] of int: X_INTRODUCED_65_ = [795,708,447,893,564,157,729,337,845,9,237,749,657,829,922,277,523,0,608,899,882,610,402,638,44,855,350,3,439,181];
array [1..30] of int: X_INTRODUCED_67_ = [43,639,531,210,314,798,109,16,465,364,14,979,993,621,424,72,96,608,0,333,200,243,100,554,72,762,371,977,666,938];
array [1..30] of int: X_INTRODUCED_69_ = [803,290,406,212,527,552,981,480,266,492,80,56,307,16,883,833,451,899,333,0,976,758,556,0,631,503,19,548,772,779];
array [1..30] of int: X_INTRODUCED_71_ = [603,608,871,315,163,841,409,443,221,187,821,434,118,226,532,18,897,882,200,976,0,918,521,255,997,71,568,29,570,352];
array [1..30] of int: X_INTRODUCED_73_ = [61,810,211,250,104,675,200,221,96,884,925,454,655,480,588,607,594,610,243,758,918,0,991,581,240,374,392,196,326,157];
array [1..30] of int: X_INTRODUCED_75_ = [233,519,353,168,678,708,924,936,824,209,638,835,207,718,191,523,136,402,100,556,521,991,0,211,989,521,985,354,568,547];
array [1..30] of int: X_INTRODUCED_77_ = [961,985,72,593,530,492,935,577,274,983,894,704,183,111,472,831,897,638,554,0,255,581,211,0,376,403,909,331,731,287];
array [1..30] of int: X_INTRODUCED_79_ = [271,361,882,548,258,952,68,580,749,410,433,278,515,688,803,758,941,44,72,631,997,240,989,376,0,979,693,436,648,864];
array [1..30] of int: X_INTRODUCED_81_ = [952,942,79,629,115,485,195,643,698,233,624,873,429,100,362,286,912,855,762,503,71,374,521,403,979,0,638,466,457,383];
array [1..30] of int: X_INTRODUCED_83_ = [680,527,133,184,668,481,404,494,731,28,546,10,429,714,862,509,517,350,371,19,568,392,985,909,693,638,0,394,779,818];
array [1..30] of int: X_INTRODUCED_85_ = [36,500,814,494,841,523,54,852,715,590,745,372,91,570,409,453,24,3,977,548,29,196,354,331,436,466,394,0,321,760];
array [1..30] of int: X_INTRODUCED_87_ = [929,782,336,352,449,426,659,637,362,678,426,933,327,968,301,394,901,439,666,772,570,326,568,731,648,457,779,321,0,785];
array [1..30] of int: X_INTRODUCED_89_ = [143,11,372,35,581,696,825,630,366,0,188,997,545,324,337,233,246,181,938,779,352,157,547,287,864,383,818,760,785,0];
array [1..29] of int: X_INTRODUCED_210_ = [1,-74,-24,-6,-5,-54,-91,-22,-21,-31,-3,-47,-60,-28,-90,-78,-15,-17,-17,-8,-65,-8,-56,-61,-2,-80,-47,-15,-20];
var 1..30: X_INTRODUCED_0_;
var 1..30: X_INTRODUCED_2_;
var 1..30: X_INTRODUCED_3_;
var 1..30: X_INTRODUCED_4_;
var 1..30: X_INTRODUCED_5_;
var 1..30: X_INTRODUCED_6_;
var 1..30: X_INTRODUCED_7_;
var 1..30: X_INTRODUCED_8_;
var 1..30: X_INTRODUCED_9_;
var 1..30: X_INTRODUCED_10_;
var 1..30: X_INTRODUCED_11_;
var 1..30: X_INTRODUCED_12_;
var 1..30: X_INTRODUCED_13_;
var 1..30: X_INTRODUCED_14_;
var 1..30: X_INTRODUCED_15_;
var 1..30: X_INTRODUCED_16_;
var 1..30: X_INTRODUCED_17_;
var 1..30: X_INTRODUCED_18_;
var 1..30: X_INTRODUCED_19_;
var 1..30: X_INTRODUCED_20_;
var 1..30: X_INTRODUCED_21_;
var 1..30: X_INTRODUCED_22_;
var 1..30: X_INTRODUCED_23_;
var 1..30: X_INTRODUCED_24_;
var 1..30: X_INTRODUCED_25_;
var 1..30: X_INTRODUCED_26_;
var 1..30: X_INTRODUCED_27_;
var 1..30: X_INTRODUCED_28_;
var 1..30: X_INTRODUCED_29_;
var 0..2000: fuel:: output_var:: is_defined_var;
var 0..1045: objective:: output_var:: is_defined_var;
var 0..961: X_INTRODUCED_32_ ::var_is_introduced :: is_defined_var;
var 0..980: X_INTRODUCED_36_ ::var_is_introduced :: is_defined_var;
var 0..980: X_INTRODUCED_38_ ::var_is_introduced :: is_defined_var;
var 0..962: X_INTRODUCED_40_ ::var_is_introduced :: is_defined_var;
var 0..981: X_INTRODUCED_42_ ::var_is_introduced :: is_defined_var;
var 0..981: X_INTRODUCED_44_ ::var_is_introduced :: is_defined_var;
var 0..936: X_INTRODUCED_46_ ::var_is_introduced :: is_defined_var;
var 0..861: X_INTRODUCED_48_ ::var_is_introduced :: is_defined_var;
var 0..983: X_INTRODUCED_50_ ::var_is_introduced :: is_defined_var;
var 0..948: X_INTRODUCED_52_ ::var_is_introduced :: is_defined_var;
var 0..997: X_INTRODUCED_54_ ::var_is_introduced :: is_defined_var;
var 0..993: X_INTRODUCED_56_ ::var_is_introduced :: is_defined_var;
var 0..968: X_INTRODUCED_58_ ::var_is_introduced :: is_defined_var;
var 0..922: X_INTRODUCED_60_ ::var_is_introduced :: is_defined_var;
var 0..903: X_INTRODUCED_62_ ::var_is_introduced :: is_defined_var;
var 0..979: X_INTRODUCED_64_ ::var_is_introduced :: is_defined_var;
var 0..922: X_INTRODUCED_66_ ::var_is_introduced :: is_defined_var;
var 0..993: X_INTRODUCED_68_ ::var_is_introduced :: is_defined_var;
var 0..981: X_INTRODUCED_70_ ::var_is_introduced :: is_defined_var;
var 0..997: X_INTRODUCED_72_ ::var_is_introduced :: is_defined_var;
var 0..991: X_INTRODUCED_74_ ::var_is_introduced :: is_defined_var;
var 0..991: X_INTRODUCED_76_ ::var_is_introduced :: is_defined_var;
var 0..985: X_INTRODUCED_78_ ::var_is_introduced :: is_defined_var;
var 0..997: X_INTRODUCED_80_ ::var_is_introduced :: is_defined_var;
var 0..979: X_INTRODUCED_82_ ::var_is_introduced :: is_defined_var;
var 0..985: X_INTRODUCED_84_ ::var_is_introduced :: is_defined_var;
var 0..977: X_INTRODUCED_86_ ::var_is_introduced :: is_defined_var;
var 0..968: X_INTRODUCED_88_ ::var_is_introduced :: is_defined_var;
var 0..997: X_INTRODUCED_90_ ::var_is_introduced :: is_defined_var;
var bool: X_INTRODUCED_99_ ::var_is_introduced :: is_defined_var;
var 0..1: X_INTRODUCED_100_ ::var_is_introduced :: is_defined_var;
var bool: X_INTRODUCED_103_ ::var_is_introduced :: is_defined_var;
var 0..1: X_INTRODUCED_104_ ::var_is_introduced :: is_defined_var;
var bool: X_INTRODUCED_107_ ::var_is_introduced :: is_defined_var;
var 0..1: X_INTRODUCED_108_ ::var_is_introduced :: is_defined_var;
var bool: X_INTRODUCED_111_ ::var_is_introduced :: is_defined_var;
var 0..1: X_INTRODUCED_112_ ::var_is_introduced :: is_defined_var;
var bool: X_INTRODUCED_115_ ::var_is_introduced :: is_defined_var;
var 0..1: X_INTRODUCED_116_ ::var_is_introduced :: is_defined_var;
var bool: X_INTRODUCED_119_ ::var_is_introduced :: is_defined_var;
var 0..1: X_INTRODUCED_120_ ::var_is_introduced :: is_defined_var;
var bool: X_INTRODUCED_123_ ::var_is_introduced :: is_defined_var;
var 0..1: X_INTRODUCED_124_ ::var_is_introduced :: is_defined_var;
var bool: X_INTRODUCED_127_ ::var_is_introduced :: is_defined_var;
var 0..1: X_INTRODUCED_128_ ::var_is_introduced :: is_defined_var;
var bool: X_INTRODUCED_131_ ::var_is_introduced :: is_defined_var;
var 0..1: X_INTRODUCED_132_ ::var_is_introduced :: is_defined_var;
var bool: X_INTRODUCED_135_ ::var_is_introduced :: is_defined_var;
var 0..1: X_INTRODUCED_136_ ::var_is_introduced :: is_defined_var;
var bool: X_INTRODUCED_139_ ::var_is_introduced :: is_defined_var;
var 0..1: X_INTRODUCED_140_ ::var_is_introduced :: is_defined_var;
var bool: X_INTRODUCED_143_ ::var_is_introduced :: is_defined_var;
var 0..1: X_INTRODUCED_144_ ::var_is_introduced :: is_defined_var;
var bool: X_INTRODUCED_147_ ::var_is_introduced :: is_defined_var;
var 0..1: X_INTRODUCED_148_ ::var_is_introduced :: is_defined_var;
var bool: X_INTRODUCED_151_ ::var_is_introduced :: is_defined_var;
var 0..1: X_INTRODUCED_152_ ::var_is_introduced :: is_defined_var;
var bool: X_INTRODUCED_155_ ::var_is_introduced :: is_defined_var;
var 0..1: X_INTRODUCED_156_ ::var_is_introduced :: is_defined_var;
var bool: X_INTRODUCED_159_ ::var_is_introduced :: is_defined_var;
var 0..1: X_INTRODUCED_160_ ::var_is_introduced :: is_defined_var;
var bool: X_INTRODUCED_163_ ::var_is_introduced :: is_defined_var;
var 0..1: X_INTRODUCED_164_ ::var_is_introduced :: is_defined_var;
var bool: X_INTRODUCED_167_ ::var_is_introduced :: is_defined_var;
var 0..1: X_INTRODUCED_168_ ::var_is_introduced :: is_defined_var;
var bool: X_INTRODUCED_170_ ::var_is_introduced :: is_defined_var;
var 0..1: X_INTRODUCED_171_ ::var_is_introduced :: is_defined_var;
var bool: X_INTRODUCED_174_ ::var_is_introduced :: is_defined_var;
var 0..1: X_INTRODUCED_175_ ::var_is_introduced :: is_defined_var;
var bool: X_INTRODUCED_178_ ::var_is_introduced :: is_defined_var;
var 0..1: X_INTRODUCED_179_ ::var_is_introduced :: is_defined_var;
var bool: X_INTRODUCED_181_ ::var_is_introduced :: is_defined_var;
var 0..1: X_INTRODUCED_182_ ::var_is_introduced :: is_defined_var;
var bool: X_INTRODUCED_185_ ::var_is_introduced :: is_defined_var;
var 0..1: X_INTRODUCED_186_ ::var_is_introduced :: is_defined_var;
var bool: X_INTRODUCED_189_ ::var_is_introduced :: is_defined_var;
var 0..1: X_INTRODUCED_190_ ::var_is_introduced :: is_defined_var;
var bool: X_INTRODUCED_193_ ::var_is_introduced :: is_defined_var;
var 0..1: X_INTRODUCED_194_ ::var_is_introduced :: is_defined_var;
var bool: X_INTRODUCED_197_ ::var_is_introduced :: is_defined_var;
var 0..1: X_INTRODUCED_198_ ::var_is_introduced :: is_defined_var;
var bool: X_INTRODUCED_200_ ::var_is_introduced :: is_defined_var;
var 0..1: X_INTRODUCED_201_ ::var_is_introduced :: is_defined_var;
var bool: X_INTRODUCED_203_ ::var_is_introduced :: is_defined_var;
var 0..1: X_INTRODUCED_204_ ::var_is_introduced :: is_defined_var;
array [1..30] of var int: succ:: output_array([1..30]) = [X_INTRODUCED_0_,1,X_INTRODUCED_2_,X_INTRODUCED_3_,X_INTRODUCED_4_,X_INTRODUCED_5_,X_INTRODUCED_6_,X_INTRODUCED_7_,X_INTRODUCED_8_,X_INTRODUCED_9_,X_INTRODUCED_10_,X_INTRODUCED_11_,X_INTRODUCED_12_,X_INTRODUCED_13_,X_INTRODUCED_14_,X_INTRODUCED_15_,X_INTRODUCED_16_,X_INTRODUCED_17_,X_INTRODUCED_18_,X_INTRODUCED_19_,X_INTRODUCED_20_,X_INTRODUCED_21_,X_INTRODUCED_22_,X_INTRODUCED_23_,X_INTRODUCED_24_,X_INTRODUCED_25_,X_INTRODUCED_26_,X_INTRODUCED_27_,X_INTRODUCED_28_,X_INTRODUCED_29_];
array [1..29] of var int: X_INTRODUCED_209_ ::var_is_introduced  = [objective,X_INTRODUCED_100_,X_INTRODUCED_104_,X_INTRODUCED_108_,X_INTRODUCED_112_,X_INTRODUCED_116_,X_INTRODUCED_120_,X_INTRODUCED_124_,X_INTRODUCED_128_,X_INTRODUCED_132_,X_INTRODUCED_136_,X_INTRODUCED_140_,X_INTRODUCED_144_,X_INTRODUCED_148_,X_INTRODUCED_152_,X_INTRODUCED_156_,X_INTRODUCED_160_,X_INTRODUCED_164_,X_INTRODUCED_168_,X_INTRODUCED_171_,X_INTRODUCED_175_,X_INTRODUCED_179_,X_INTRODUCED_182_,X_INTRODUCED_186_,X_INTRODUCED_190_,X_INTRODUCED_194_,X_INTRODUCED_198_,X_INTRODUCED_201_,X_INTRODUCED_204_];
constraint array_int_element(X_INTRODUCED_0_,X_INTRODUCED_31_,X_INTRODUCED_32_):: defines_var(X_INTRODUCED_32_);
constraint array_int_element(X_INTRODUCED_2_,X_INTRODUCED_35_,X_INTRODUCED_36_):: defines_var(X_INTRODUCED_36_);
constraint array_int_element(X_INTRODUCED_3_,X_INTRODUCED_37_,X_INTRODUCED_38_):: defines_var(X_INTRODUCED_38_);
constraint array_int_element(X_INTRODUCED_4_,X_INTRODUCED_39_,X_INTRODUCED_40_):: defines_var(X_INTRODUCED_40_);
constraint array_int_element(X_INTRODUCED_5_,X_INTRODUCED_41_,X_INTRODUCED_42_):: defines_var(X_INTRODUCED_42_);
constraint array_int_element(X_INTRODUCED_6_,X_INTRODUCED_43_,X_INTRODUCED_44_):: defines_var(X_INTRODUCED_44_);
constraint array_int_element(X_INTRODUCED_7_,X_INTRODUCED_45_,X_INTRODUCED_46_):: defines_var(X_INTRODUCED_46_);
constraint array_int_element(X_INTRODUCED_8_,X_INTRODUCED_47_,X_INTRODUCED_48_):: defines_var(X_INTRODUCED_48_);
constraint array_int_element(X_INTRODUCED_9_,X_INTRODUCED_49_,X_INTRODUCED_50_):: defines_var(X_INTRODUCED_50_);
constraint array_int_element(X_INTRODUCED_10_,X_INTRODUCED_51_,X_INTRODUCED_52_):: defines_var(X_INTRODUCED_52_);
constraint array_int_element(X_INTRODUCED_11_,X_INTRODUCED_53_,X_INTRODUCED_54_):: defines_var(X_INTRODUCED_54_);
constraint array_int_element(X_INTRODUCED_12_,X_INTRODUCED_55_,X_INTRODUCED_56_):: defines_var(X_INTRODUCED_56_);
constraint array_int_element(X_INTRODUCED_13_,X_INTRODUCED_57_,X_INTRODUCED_58_):: defines_var(X_INTRODUCED_58_);
constraint array_int_element(X_INTRODUCED_14_,X_INTRODUCED_59_,X_INTRODUCED_60_):: defines_var(X_INTRODUCED_60_);
constraint array_int_element(X_INTRODUCED_15_,X_INTRODUCED_61_,X_INTRODUCED_62_):: defines_var(X_INTRODUCED_62_);
constraint array_int_element(X_INTRODUCED_16_,X_INTRODUCED_63_,X_INTRODUCED_64_):: defines_var(X_INTRODUCED_64_);
constraint array_int_element(X_INTRODUCED_17_,X_INTRODUCED_65_,X_INTRODUCED_66_):: defines_var(X_INTRODUCED_66_);
constraint array_int_element(X_INTRODUCED_18_,X_INTRODUCED_67_,X_INTRODUCED_68_):: defines_var(X_INTRODUCED_68_);
constraint array_int_element(X_INTRODUCED_19_,X_INTRODUCED_69_,X_INTRODUCED_70_):: defines_var(X_INTRODUCED_70_);
constraint array_int_element(X_INTRODUCED_20_,X_INTRODUCED_71_,X_INTRODUCED_72_):: defines_var(X_INTRODUCED_72_);
constraint array_int_element(X_INTRODUCED_21_,X_INTRODUCED_73_,X_INTRODUCED_74_):: defines_var(X_INTRODUCED_74_);
constraint array_int_element(X_INTRODUCED_22_,X_INTRODUCED_75_,X_INTRODUCED_76_):: defines_var(X_INTRODUCED_76_);
constraint array_int_element(X_INTRODUCED_23_,X_INTRODUCED_77_,X_INTRODUCED_78_):: defines_var(X_INTRODUCED_78_);
constraint array_int_element(X_INTRODUCED_24_,X_INTRODUCED_79_,X_INTRODUCED_80_):: defines_var(X_INTRODUCED_80_);
constraint array_int_element(X_INTRODUCED_25_,X_INTRODUCED_81_,X_INTRODUCED_82_):: defines_var(X_INTRODUCED_82_);
constraint array_int_element(X_INTRODUCED_26_,X_INTRODUCED_83_,X_INTRODUCED_84_):: defines_var(X_INTRODUCED_84_);
constraint array_int_element(X_INTRODUCED_27_,X_INTRODUCED_85_,X_INTRODUCED_86_):: defines_var(X_INTRODUCED_86_);
constraint array_int_element(X_INTRODUCED_28_,X_INTRODUCED_87_,X_INTRODUCED_88_):: defines_var(X_INTRODUCED_88_);
constraint array_int_element(X_INTRODUCED_29_,X_INTRODUCED_89_,X_INTRODUCED_90_):: defines_var(X_INTRODUCED_90_);
constraint int_lin_eq([1,-1,-1,-1,-1,-1,-1,-1,-1,-1,-1,-1,-1,-1,-1,-1,-1,-1,-1,-1,-1,-1,-1,-1,-1,-1,-1,-1,-1,-1],[fuel,X_INTRODUCED_32_,X_INTRODUCED_36_,X_INTRODUCED_38_,X_INTRODUCED_40_,X_INTRODUCED_42_,X_INTRODUCED_44_,X_INTRODUCED_46_,X_INTRODUCED_48_,X_INTRODUCED_50_,X_INTRODUCED_52_,X_INTRODUCED_54_,X_INTRODUCED_56_,X_INTRODUCED_58_,X_INTRODUCED_60_,X_INTRODUCED_62_,X_INTRODUCED_64_,X_INTRODUCED_66_,X_INTRODUCED_68_,X_INTRODUCED_70_,X_INTRODUCED_72_,X_INTRODUCED_74_,X_INTRODUCED_76_,X_INTRODUCED_78_,X_INTRODUCED_80_,X_INTRODUCED_82_,X_INTRODUCED_84_,X_INTRODUCED_86_,X_INTRODUCED_88_,X_INTRODUCED_90_],0):: defines_var(fuel);
constraint int_lin_eq(X_INTRODUCED_210_,X_INTRODUCED_209_,0):: defines_var(objective);
constraint subcircuitChoco(succ);
constraint int_ne_reif(X_INTRODUCED_2_,3,X_INTRODUCED_99_):: defines_var(X_INTRODUCED_99_);
constraint bool2int(X_INTRODUCED_99_,X_INTRODUCED_100_):: defines_var(X_INTRODUCED_100_);
constraint int_ne_reif(X_INTRODUCED_3_,4,X_INTRODUCED_103_):: defines_var(X_INTRODUCED_103_);
constraint bool2int(X_INTRODUCED_103_,X_INTRODUCED_104_):: defines_var(X_INTRODUCED_104_);
constraint int_ne_reif(X_INTRODUCED_4_,5,X_INTRODUCED_107_):: defines_var(X_INTRODUCED_107_);
constraint bool2int(X_INTRODUCED_107_,X_INTRODUCED_108_):: defines_var(X_INTRODUCED_108_);
constraint int_ne_reif(X_INTRODUCED_5_,6,X_INTRODUCED_111_):: defines_var(X_INTRODUCED_111_);
constraint bool2int(X_INTRODUCED_111_,X_INTRODUCED_112_):: defines_var(X_INTRODUCED_112_);
constraint int_ne_reif(X_INTRODUCED_6_,7,X_INTRODUCED_115_):: defines_var(X_INTRODUCED_115_);
constraint bool2int(X_INTRODUCED_115_,X_INTRODUCED_116_):: defines_var(X_INTRODUCED_116_);
constraint int_ne_reif(X_INTRODUCED_7_,8,X_INTRODUCED_119_):: defines_var(X_INTRODUCED_119_);
constraint bool2int(X_INTRODUCED_119_,X_INTRODUCED_120_):: defines_var(X_INTRODUCED_120_);
constraint int_ne_reif(X_INTRODUCED_8_,9,X_INTRODUCED_123_):: defines_var(X_INTRODUCED_123_);
constraint bool2int(X_INTRODUCED_123_,X_INTRODUCED_124_):: defines_var(X_INTRODUCED_124_);
constraint int_ne_reif(X_INTRODUCED_9_,10,X_INTRODUCED_127_):: defines_var(X_INTRODUCED_127_);
constraint bool2int(X_INTRODUCED_127_,X_INTRODUCED_128_):: defines_var(X_INTRODUCED_128_);
constraint int_ne_reif(X_INTRODUCED_10_,11,X_INTRODUCED_131_):: defines_var(X_INTRODUCED_131_);
constraint bool2int(X_INTRODUCED_131_,X_INTRODUCED_132_):: defines_var(X_INTRODUCED_132_);
constraint int_ne_reif(X_INTRODUCED_11_,12,X_INTRODUCED_135_):: defines_var(X_INTRODUCED_135_);
constraint bool2int(X_INTRODUCED_135_,X_INTRODUCED_136_):: defines_var(X_INTRODUCED_136_);
constraint int_ne_reif(X_INTRODUCED_12_,13,X_INTRODUCED_139_):: defines_var(X_INTRODUCED_139_);
constraint bool2int(X_INTRODUCED_139_,X_INTRODUCED_140_):: defines_var(X_INTRODUCED_140_);
constraint int_ne_reif(X_INTRODUCED_13_,14,X_INTRODUCED_143_):: defines_var(X_INTRODUCED_143_);
constraint bool2int(X_INTRODUCED_143_,X_INTRODUCED_144_):: defines_var(X_INTRODUCED_144_);
constraint int_ne_reif(X_INTRODUCED_14_,15,X_INTRODUCED_147_):: defines_var(X_INTRODUCED_147_);
constraint bool2int(X_INTRODUCED_147_,X_INTRODUCED_148_):: defines_var(X_INTRODUCED_148_);
constraint int_ne_reif(X_INTRODUCED_15_,16,X_INTRODUCED_151_):: defines_var(X_INTRODUCED_151_);
constraint bool2int(X_INTRODUCED_151_,X_INTRODUCED_152_):: defines_var(X_INTRODUCED_152_);
constraint int_ne_reif(X_INTRODUCED_16_,17,X_INTRODUCED_155_):: defines_var(X_INTRODUCED_155_);
constraint bool2int(X_INTRODUCED_155_,X_INTRODUCED_156_):: defines_var(X_INTRODUCED_156_);
constraint int_ne_reif(X_INTRODUCED_17_,18,X_INTRODUCED_159_):: defines_var(X_INTRODUCED_159_);
constraint bool2int(X_INTRODUCED_159_,X_INTRODUCED_160_):: defines_var(X_INTRODUCED_160_);
constraint int_ne_reif(X_INTRODUCED_18_,19,X_INTRODUCED_163_):: defines_var(X_INTRODUCED_163_);
constraint bool2int(X_INTRODUCED_163_,X_INTRODUCED_164_):: defines_var(X_INTRODUCED_164_);
constraint int_ne_reif(X_INTRODUCED_19_,20,X_INTRODUCED_167_):: defines_var(X_INTRODUCED_167_);
constraint bool2int(X_INTRODUCED_167_,X_INTRODUCED_168_):: defines_var(X_INTRODUCED_168_);
constraint int_ne_reif(X_INTRODUCED_20_,21,X_INTRODUCED_170_):: defines_var(X_INTRODUCED_170_);
constraint bool2int(X_INTRODUCED_170_,X_INTRODUCED_171_):: defines_var(X_INTRODUCED_171_);
constraint int_ne_reif(X_INTRODUCED_21_,22,X_INTRODUCED_174_):: defines_var(X_INTRODUCED_174_);
constraint bool2int(X_INTRODUCED_174_,X_INTRODUCED_175_):: defines_var(X_INTRODUCED_175_);
constraint int_ne_reif(X_INTRODUCED_22_,23,X_INTRODUCED_178_):: defines_var(X_INTRODUCED_178_);
constraint bool2int(X_INTRODUCED_178_,X_INTRODUCED_179_):: defines_var(X_INTRODUCED_179_);
constraint int_ne_reif(X_INTRODUCED_23_,24,X_INTRODUCED_181_):: defines_var(X_INTRODUCED_181_);
constraint bool2int(X_INTRODUCED_181_,X_INTRODUCED_182_):: defines_var(X_INTRODUCED_182_);
constraint int_ne_reif(X_INTRODUCED_24_,25,X_INTRODUCED_185_):: defines_var(X_INTRODUCED_185_);
constraint bool2int(X_INTRODUCED_185_,X_INTRODUCED_186_):: defines_var(X_INTRODUCED_186_);
constraint int_ne_reif(X_INTRODUCED_25_,26,X_INTRODUCED_189_):: defines_var(X_INTRODUCED_189_);
constraint bool2int(X_INTRODUCED_189_,X_INTRODUCED_190_):: defines_var(X_INTRODUCED_190_);
constraint int_ne_reif(X_INTRODUCED_26_,27,X_INTRODUCED_193_):: defines_var(X_INTRODUCED_193_);
constraint bool2int(X_INTRODUCED_193_,X_INTRODUCED_194_):: defines_var(X_INTRODUCED_194_);
constraint int_ne_reif(X_INTRODUCED_27_,28,X_INTRODUCED_197_):: defines_var(X_INTRODUCED_197_);
constraint bool2int(X_INTRODUCED_197_,X_INTRODUCED_198_):: defines_var(X_INTRODUCED_198_);
constraint int_ne_reif(X_INTRODUCED_28_,29,X_INTRODUCED_200_):: defines_var(X_INTRODUCED_200_);
constraint bool2int(X_INTRODUCED_200_,X_INTRODUCED_201_):: defines_var(X_INTRODUCED_201_);
constraint int_ne_reif(X_INTRODUCED_29_,30,X_INTRODUCED_203_):: defines_var(X_INTRODUCED_203_);
constraint bool2int(X_INTRODUCED_203_,X_INTRODUCED_204_):: defines_var(X_INTRODUCED_204_);
solve :: seq_search([int_search(succ,first_fail,indomain_min,complete),int_search([objective],input_order,indomain_max,complete)]) maximize objective;
